(set-info :smt-lib-version 2.6)
(set-logic QF_ALIA)
(set-info :notes "Adapted for Array Sum evaluation.
Base file: ios_t1_ios_bia_np_sf_ai_00014_001.cvc.smt2")
(set-info :source |
Benchmarks used in the followin paper:
Big proof engines as little proof engines: new results on rewrite-based satisfiability procedure
Alessandro Armando, Maria Paola Bonacina, Silvio Ranise, Stephan Schulz. 
PDPAR'05
http://www.ai.dist.unige.it/pdpar05/
|)
(set-info :category "crafted")
(declare-fun a_12 () (Array Int Int))
(declare-fun a_15 () (Array Int Int))
(declare-fun a_18 () (Array Int Int))
(declare-fun a_21 () (Array Int Int))
(declare-fun a_24 () (Array Int Int))
(declare-fun a_27 () (Array Int Int))
(declare-fun a_3 () (Array Int Int))
(declare-fun a_30 () (Array Int Int))
(declare-fun a_33 () (Array Int Int))
(declare-fun a_36 () (Array Int Int))
(declare-fun a_39 () (Array Int Int))
(declare-fun a_42 () (Array Int Int))
(declare-fun a_45 () (Array Int Int))
(declare-fun a_47 () (Array Int Int))
(declare-fun a_49 () (Array Int Int))
(declare-fun a_51 () (Array Int Int))
(declare-fun a_53 () (Array Int Int))
(declare-fun a_55 () (Array Int Int))
(declare-fun a_57 () (Array Int Int))
(declare-fun a_59 () (Array Int Int))
(declare-fun a_6 () (Array Int Int))
(declare-fun a_61 () (Array Int Int))
(declare-fun a_63 () (Array Int Int))
(declare-fun a_65 () (Array Int Int))
(declare-fun a_67 () (Array Int Int))
(declare-fun a_69 () (Array Int Int))
(declare-fun a_72 () (Array Int Int))
(declare-fun a_9 () (Array Int Int))
(declare-fun e_0 () Int)
(declare-fun e_1 () Int)
(declare-fun e_10 () Int)
(declare-fun e_11 () Int)
(declare-fun e_13 () Int)
(declare-fun e_14 () Int)
(declare-fun e_16 () Int)
(declare-fun e_17 () Int)
(declare-fun e_19 () Int)
(declare-fun e_2 () Int)
(declare-fun e_20 () Int)
(declare-fun e_22 () Int)
(declare-fun e_23 () Int)
(declare-fun e_25 () Int)
(declare-fun e_26 () Int)
(declare-fun e_28 () Int)
(declare-fun e_29 () Int)
(declare-fun e_31 () Int)
(declare-fun e_32 () Int)
(declare-fun e_34 () Int)
(declare-fun e_35 () Int)
(declare-fun e_37 () Int)
(declare-fun e_38 () Int)
(declare-fun e_4 () Int)
(declare-fun e_40 () Int)
(declare-fun e_41 () Int)
(declare-fun e_43 () Int)
(declare-fun e_44 () Int)
(declare-fun e_46 () Int)
(declare-fun e_48 () Int)
(declare-fun e_5 () Int)
(declare-fun e_50 () Int)
(declare-fun e_52 () Int)
(declare-fun e_54 () Int)
(declare-fun e_56 () Int)
(declare-fun e_58 () Int)
(declare-fun e_60 () Int)
(declare-fun e_62 () Int)
(declare-fun e_64 () Int)
(declare-fun e_66 () Int)
(declare-fun e_68 () Int)
(declare-fun e_7 () Int)
(declare-fun e_70 () Int)
(declare-fun e_71 () Int)
(declare-fun e_8 () Int)
(declare-fun a () (Array Int Int))
(declare-fun i () Int)
(assert (= a_12 (store a_9 e_10 e_11)))
(assert (= a_15 (store a_12 e_13 e_14)))
(assert (= a_18 (store a_15 e_16 e_17)))
(assert (= a_21 (store a_18 e_19 e_20)))
(assert (= a_24 (store a_21 e_22 e_23)))
(assert (= a_27 (store a_24 e_25 e_26)))
(assert (= a_3 (store a e_0 e_2)))
(assert (= a_30 (store a_27 e_28 e_29)))
(assert (= a_33 (store a_30 e_31 e_32)))
(assert (= a_36 (store a_33 e_34 e_35)))
(assert (= a_39 (store a_36 e_37 e_38)))
(assert (= a_42 (store a_39 e_40 e_41)))
(assert (= a_45 (store a e_37 e_44)))
(assert (= a_47 (store a_45 e_34 e_46)))
(assert (= a_49 (store a_47 e_31 e_48)))
(assert (= a_51 (store a_49 e_28 e_50)))
(assert (= a_53 (store a_51 e_25 e_52)))
(assert (= a_55 (store a_53 e_22 e_54)))
(assert (= a_57 (store a_55 e_19 e_56)))
(assert (= a_59 (store a_57 e_16 e_58)))
(assert (= a_6 (store a_3 e_4 e_5)))
(assert (= a_61 (store a_59 e_13 e_60)))
(assert (= a_63 (store a_61 e_10 e_62)))
(assert (= a_65 (store a_63 e_7 e_64)))
(assert (= a_67 (store a_65 e_4 e_66)))
(assert (= a_69 (store a_67 e_0 e_68)))
(assert (= a_72 (store a_69 e_70 e_71)))
(assert (= a_9 (store a_6 e_7 e_8)))
(assert (= e_0 (+ i 1)))
(assert (= e_1 (select a i)))
(assert (= e_10 (+ i 4)))
(assert (= e_11 (+ e_1 4)))
(assert (= e_13 (+ i 5)))
(assert (= e_14 (+ e_1 5)))
(assert (= e_16 (+ i 6)))
(assert (= e_17 (+ e_1 6)))
(assert (= e_19 (+ i 7)))
(assert (= e_2 (+ e_1 1)))
(assert (= e_20 (+ e_1 7)))
(assert (= e_22 (+ i 8)))
(assert (= e_23 (+ e_1 8)))
(assert (= e_25 (+ i 9)))
(assert (= e_26 (+ e_1 9)))
(assert (= e_28 (+ i 10)))
(assert (= e_29 (+ e_1 10)))
(assert (= e_31 (+ i 11)))
(assert (= e_32 (+ e_1 11)))
(assert (= e_34 (+ i 12)))
(assert (= e_35 (+ e_1 12)))
(assert (= e_37 (+ i 13)))
(assert (= e_38 (+ e_1 13)))
(assert (= e_4 (+ i 2)))
(assert (= e_40 (+ i 14)))
(assert (= e_41 (+ e_1 14)))
(assert (= e_43 (select a e_40)))
(assert (= e_44 (- e_43 1)))
(assert (= e_46 (- e_43 2)))
(assert (= e_48 (- e_43 3)))
(assert (= e_5 (+ e_1 2)))
(assert (= e_50 (- e_43 4)))
(assert (= e_52 (- e_43 5)))
(assert (= e_54 (- e_43 6)))
(assert (= e_56 (- e_43 7)))
(assert (= e_58 (- e_43 8)))
(assert (= e_60 (- e_43 9)))
(assert (= e_62 (- e_43 10)))
(assert (= e_64 (- e_43 11)))
(assert (= e_66 (- e_43 12)))
(assert (= e_68 (- e_43 13)))
(assert (= e_7 (+ i 3)))
(assert (= e_70 (+ i 0)))
(assert (= e_71 (- e_43 14)))
(assert (= e_8 (+ e_1 3)))
(assert (= a_42 a_72))
(assert (not (= e_41 e_43)))
; --- Injected Array Sum Constraint ---
(assert (sum a_3 (+ e_50 (+ e_11 e_48))))
(assert (sum a_24 (+ e_64 (+ e_8 e_26))))
(assert (sum a_63 (+ e_70 (+ e_46 e_58))))
(check-sat)
(exit)